993.6,56.99,68.3
1066.95,53.07,63.61
1001.61,56.53,67.76
1141.23,49.62,59.47
1070.53,52.9,63.39
1011.36,55.99,67.1
986.19,57.42,68.82
1109.86,51.02,61.15
1091.13,51.9,62.2
989.37,57.23,68.59
944.63,59.94,71.84
1018.47,55.6,66.63
1036.52,54.63,65.47
1072.4,52.8,63.28
1053.15,53.77,64.44
975.42,58.05,69.58
987.59,57.34,68.72
976.67,57.98,69.49
1111.43,50.95,61.06
1002.59,56.48,67.69
